(set-logic CHC_LIA)

(synth-fun main@.lr.ph..lr.ph.split_crit_edge ((x_0 Int) (x_1 Int)) Bool)

(synth-fun main@_bb1 ((x_0 Int) (x_1 Int)) Bool)

(synth-fun main@entry () Bool)

(synth-fun main@.lr.ph.i ((x_0 Int) (x_1 Int) (x_2 Bool) (x_3 Int)) Bool)

(synth-fun main@_bb ((x_0 Int) (x_1 Int) (x_2 Bool) (x_3 Int)) Bool)

(synth-fun main@verifier.error.split () Bool)

(synth-fun main@.lr.ph.i4 ((x_0 Int) (x_1 Int)) Bool)

(constraint (forall ((CHC_COMP_UNUSED Bool)) (=> (and true) main@entry)))
(constraint (forall ((A Bool) (B Bool) (C Bool) (D Bool) (E Bool) (F Bool) (G Bool) (H Bool) (I Bool) (J Int) (K Int) (L Int) (M Bool) (N Bool) (O Int) (P Int) (Q Int)) (=> (and main@entry (and (= B (not (<= J 0))) (= C (and A B)) (= A (not (<= K 0))) (= D (not (<= 1 K))) (= E (not (<= 1 J))) (or (not N) (not M) (= L J)) (or (not N) (not M) (= P O)) (or (not N) (not M) (= Q L)) (or (not N) (not M) (= O K)) (or (not H) (not N) (not I)) (or (not H) (not G) (not F)) (or (not M) (and N M)) (or (not N) (and H N)) (or (not H) (and H F)) (= M true) (= C true) (not D) (= I (or E D)))) (main@.lr.ph..lr.ph.split_crit_edge P Q))))
(constraint (forall ((A Bool) (B Bool) (C Bool) (D Bool) (E Bool) (F Bool) (G Bool) (H Bool) (I Bool) (J Bool) (K Int) (L Bool) (M Int) (N Bool) (O Bool) (P Int) (Q Int) (R Int) (S Bool) (T Int)) (=> (and main@entry (and (= J (not (<= 1 Q))) (= D (not (<= 1 K))) (= C (and A B)) (= G (or D J)) (= A (not (<= Q 0))) (or (not H) F (not E)) (or (not O) (not N) (= L J)) (or (not O) (not N) (= S L)) (or (not O) (not N) (= P Q)) (or (not O) (not N) (= M K)) (or (not O) (not N) (= T M)) (or (not O) (not N) (= R P)) (or (not O) (not H) (not I)) (or (not N) (and O N)) (or (not H) (= I (= Q K))) (or (not H) (and H E)) (or (not H) (not G)) (or (not O) (and O H)) (not J) (= N true) (= C true) (= B (not (<= K 0))))) (main@.lr.ph.i Q R S T))))
(constraint (forall ((A Bool) (B Bool) (C Bool) (D Bool) (E Bool) (F Bool) (G Bool) (H Bool) (I Int) (J Bool) (K Bool) (L Int) (M Bool) (N Bool) (O Int) (P Bool) (Q Bool) (R Int) (S Int) (T Int)) (=> (and main@entry (and (= E (not (<= 1 I))) (= D (not (<= 1 O))) (= C (and A B)) (= H (or D E)) (= A (not (<= O 0))) (or (not Q) (not P) (= S R)) (or (not Q) (not P) (= R O)) (or (not N) (not Q) (not M)) (or (not K) (not M) (= L O)) (or (not K) (not M) (= T L)) (or (not K) J (not M)) (or G (not K) (not F)) (or (not P) (and Q P)) (or (not M) (= N (= O 0))) (or (not M) (and K M)) (or (not Q) (and Q M)) (or (not K) (= J (= O I))) (or (not K) (and K F)) (or (not H) (not K)) (= P true) (not D) (= C true) (= B (not (<= I 0))))) (main@.lr.ph.i4 S T))))
(constraint (forall ((A Bool) (B Bool) (C Bool) (D Bool) (E Bool) (F Bool) (G Bool) (H Int) (I Bool) (J Bool) (K Int) (L Int) (M Int) (N Bool) (O Bool) (P Bool) (Q Bool) (R Bool) (S Bool) (T Bool) (U Bool) (V Bool) (W Bool)) (=> (and main@entry (and (= A (not (<= M 0))) (= U (or D E)) (= C (and B A)) (= D (not (<= 1 M))) (= B (not (<= H 0))) (or U (not T) (not S)) (or (not F) (not G) (not S)) (or (not J) (not O) (= K L)) (or (not J) (not O) (= L M)) (or (not J) I (not O)) (or (not J) (not F) G) (or (not R) (not O) (= Q P)) (or (not R) (not P) (not O)) (or (not R) N (not O)) (or (not V) (and V R) (and T S)) (or (not S) (and F S)) (or (not O) (= N (= M 0))) (or (not O) (and J O)) (or (not T) S) (or (not J) (= I (= M H))) (or (not J) (and J F)) (or (not J) (not U)) (or (not W) (and V W)) (or (not R) (and R O)) (or (not R) Q) (= C true) (= W true) (not D) (= E (not (<= 1 H))))) main@verifier.error.split)))
(constraint (forall ((A Int) (B Bool) (C Bool) (D Int) (E Int) (F Int)) (=> (and (main@.lr.ph..lr.ph.split_crit_edge E A) (and (or (not C) (not B) (= D A)) (or (not B) (and C B)) (= B true) (or (not C) (not B) (= F D)))) (main@_bb1 E F))))
(constraint (forall ((A Bool) (B Bool) (C Int) (D Bool) (E Int) (F Int) (G Bool) (H Bool) (I Bool) (J Bool) (K Int) (L Int) (M Int) (N Bool) (O Bool) (P Int) (Q Int) (R Int)) (=> (and (main@_bb1 F C) (let ((a!1 (or (not O) (= H (not (<= 1 L))))) (a!2 (or (not O) (= I (not (<= 1 K))))) (a!3 (or (not O) (= L (+ F (* (- 1) K)))))) (and (= A (= C F)) (or (not O) (not N) (= M K)) (or (not O) (not N) (= Q P)) (or (not O) (not N) (= R M)) (or (not O) (not N) (= P L)) (or (not O) (not J) (not N)) (or (not O) (not D) (= K E)) (or (not O) (not D) (= E C)) (or B (not O) (not D)) (or (not N) (and O N)) (or (not O) (= J (or I H))) a!1 a!2 a!3 (or (not O) (and O D)) (or (not O) (not G)) (= N true) (not A) (= B (not (<= F C)))))) (main@.lr.ph..lr.ph.split_crit_edge Q R))))
(constraint (forall ((A Bool) (B Bool) (C Bool) (D Int) (E Bool) (F Bool) (G Int) (H Bool) (I Bool) (J Int) (K Int) (L Int)) (=> (and (main@_bb1 K D) (let ((a!1 (or (not I) (= F (not (<= 1 G))))) (a!2 (or (not I) (= G (+ D (* (- 1) K)))))) (and (= C (not (<= K D))) (or (not I) (not H) (= L J)) (or (not I) (not H) (= J G)) (or (not F) (not I) (not H)) (or (not C) (not B) (not I)) (or (not H) (and I H)) a!1 a!2 (or (not I) (and B I)) (or (not I) (not E)) (= H true) (not A) (= A (= D K))))) (main@_bb1 K L))))
(constraint (forall ((A Bool) (B Bool) (C Int) (D Bool) (E Bool) (F Bool) (G Int) (H Bool) (I Int) (J Int) (K Bool) (L Int) (M Int) (N Bool) (O Bool) (P Bool) (Q Bool) (R Bool) (S Bool) (T Bool) (U Bool)) (=> (and (main@_bb1 J G) (let ((a!1 (or (not D) (= E (not (<= 1 C))))) (a!2 (or (not D) (= C (+ G (* (- 1) J))))) (a!3 (or (not P) (= N (not (<= 1 L))))) (a!4 (or (not P) (= O (not (<= 1 M))))) (a!5 (or (not P) (= L (+ J (* (- 1) M)))))) (and (= A (= G J)) (or (not D) (not S) E) (or (not H) (not D) (not F)) (or (not P) (not R) Q) (or (not P) (not H) (= M I)) (or (not P) (not H) (= I G)) (or (not P) (not H) F) (or (not T) (and T S) (and T R)) (or (not R) (and P R)) (or (not S) (and D S)) a!1 a!2 (or (not D) (and H D)) (or (not U) (and T U)) (or (not P) (= Q (or O N))) a!3 a!4 a!5 (or (not P) (and P H)) (or (not P) (not K)) (or (not B) (not D)) (not A) (= U true) (= F (not (<= J G)))))) main@verifier.error.split)))
(constraint (forall ((A Int) (B Bool) (C Bool) (D Int) (E Int) (F Int) (G Bool) (H Int)) (=> (and (main@.lr.ph.i E F G A) (and (or (not C) (not B) (= H D)) (or (not B) (and C B)) (= B true) (or (not C) (not B) (= D A)))) (main@_bb E F G H))))
(constraint (forall ((A Bool) (B Int) (C Bool) (D Int) (E Bool) (F Int) (G Int) (H Bool) (I Bool) (J Bool) (K Bool) (L Int) (M Int) (N Bool) (O Int) (P Bool) (Q Bool) (R Int) (S Int) (T Int) (U Bool) (V Int)) (=> (and (main@_bb S G A D) (let ((a!1 (or (not Q) (= K (not (<= 1 M))))) (a!2 (or (not Q) (= H (not (<= 1 L))))) (a!3 (or (not Q) (= M (+ G (* (- 1) L)))))) (and (= B (+ D (* (- 1) G))) (or (not Q) (not P) (= N K)) (or (not Q) (not P) (= U N)) (or (not Q) (not P) (= R M)) (or (not Q) (not P) (= O L)) (or (not Q) (not P) (= V O)) (or (not Q) (not P) (= T R)) (or (not Q) (not E) (= F D)) (or (not Q) (not E) (= L F)) (or (not Q) (not J) (not P)) (or C (not Q) (not E)) (or (not P) (and Q P)) a!1 a!2 (or (not Q) (= I (or H K))) (or (not Q) (= J (= M L))) a!3 (or (not Q) (and Q E)) (or (not Q) (not I)) (= P true) (= C (not (<= G D)))))) (main@.lr.ph.i S T U V))))
(constraint (forall ((A Int) (B Bool) (C Bool) (D Bool) (E Bool) (F Bool) (G Int) (H Bool) (I Bool) (J Int) (K Int) (L Int) (M Bool) (N Int)) (=> (and (main@_bb K L M A) (let ((a!1 (or (not I) (= D (not (<= 1 G)))))) (and (= G (+ A (* (- 1) L))) (or (not I) (not H) (= J G)) (or (not I) (not H) (= N J)) (or (not I) (not H) (not F)) (or (not I) (not B) (not C)) (or (not H) (and I H)) (or (not I) (= F (= L G))) a!1 (or (not I) (= E (or M D))) (or (not I) (and I B)) (or (not I) (not E)) (= H true) (= C (not (<= L A)))))) (main@_bb K L M N))))
(constraint (forall ((A Bool) (B Bool) (C Bool) (D Int) (E Bool) (F Bool) (G Int) (H Bool) (I Int) (J Bool) (K Int) (L Int) (M Bool) (N Bool) (O Bool) (P Int) (Q Bool) (R Int) (S Bool) (T Int) (U Int) (V Int) (W Bool) (X Int) (Y Bool) (Z Int) (A1 Bool) (B1 Bool) (C1 Int) (D1 Bool) (E1 Bool) (F1 Int) (G1 Int) (H1 Int)) (=> (and (main@_bb C1 L A I) (let ((a!1 (or (not F) (= B (not (<= 1 D))))) (a!2 (or (not S) (= N (not (<= 1 P))))) (a!3 (or (not S) (= M (not (<= 1 R))))) (a!4 (or (not S) (= P (+ L (* (- 1) R)))))) (and (= D (+ I (* (- 1) L))) (or (not A1) (and Y A1) (and A1 W)) (or (not A1) (not W) (= X U)) (or (not A1) (not W) (= H1 X)) (or (not S) (not J) (= R K)) (or (not S) (not J) (= K I)) (or (not S) (not W) (= T R)) (or (not S) (not W) (= U T)) (or (not H) (not J) (not F)) (or H (not S) (not J)) (or (not E1) (not D1) (= G1 F1)) (or (not E1) (not D1) (= F1 C1)) (or (not B1) (not E1) (not A1)) (or (not Y) (not F) (= G L)) (or (not Y) (not F) (= V G)) (or (not Y) (not A1) (= Z V)) (or (not Y) (not A1) (= H1 Z)) (or (not Y) E (not F)) (or Q (not S) (not W)) a!1 (or (not F) (= E (= L D))) (or (not F) (= C (or A B))) (or (not F) (and J F)) (or (not D1) (and E1 D1)) (or (not W) (and S W)) (or (not A1) (= B1 (= C1 0))) (or (not S) (= Q (= P R))) a!2 (or (not S) (= O (or M N))) a!3 a!4 (or (not S) (and S J)) (or (not E1) (and E1 A1)) (or (not C) (not F)) (or (not Y) (and Y F)) (or (not O) (not S)) (= D1 true) (= H (not (<= L I)))))) (main@.lr.ph.i4 G1 H1))))
(constraint (forall ((A Bool) (B Bool) (C Bool) (D Int) (E Bool) (F Bool) (G Int) (H Bool) (I Int) (J Bool) (K Int) (L Int) (M Bool) (N Bool) (O Bool) (P Int) (Q Bool) (R Int) (S Bool) (T Int) (U Int) (V Int) (W Bool) (X Int) (Y Bool) (Z Int) (A1 Int) (B1 Int) (C1 Bool) (D1 Bool) (E1 Bool) (F1 Bool) (G1 Bool) (H1 Bool) (I1 Bool)) (=> (and (main@_bb B1 L A I) (let ((a!1 (or (not F) (= B (not (<= 1 D))))) (a!2 (or (not S) (= M (not (<= 1 R))))) (a!3 (or (not S) (= N (not (<= 1 P))))) (a!4 (or (not S) (= P (+ L (* (- 1) R)))))) (and (= D (+ I (* (- 1) L))) (or (not Y) (not F) (= V G)) (or (not Y) (not F) (= G L)) (or (not H) (not F) (not J)) (or (not S) (not J) (= R K)) (or (not S) (not J) (= K I)) (or (not S) H (not J)) (or E (not Y) (not F)) (or (not W) (not S) (= T R)) (or (not W) (not S) (= U T)) (or (not W) (not S) Q) (or (not D1) (and D1 W) (and D1 Y)) (or (not D1) (not Y) (= A1 V)) (or (not D1) (not Y) (= Z A1)) (or (not D1) (not G1) (= F1 E1)) (or (not D1) (not G1) (not E1)) (or (not D1) (not G1) C1) (or (not D1) (not W) (= X U)) (or (not D1) (not W) (= Z X)) (or (not F) (= C (or A B))) a!1 (or (not F) (= E (= L D))) (or (not F) (and F J)) (or (not F) (not C)) (or (not Y) (and Y F)) (or (not S) (= Q (= P R))) a!2 (or (not S) (= O (or N M))) a!3 a!4 (or (not S) (and S J)) (or (not G1) (and D1 G1)) (or (not G1) F1) (or (not O) (not S)) (or (not W) (and W S)) (or (not I1) (and H1 I1)) (or (not D1) (= C1 (= B1 0))) (or (not H1) (and H1 G1)) (= I1 true) (= H (not (<= L I)))))) main@verifier.error.split)))
(constraint (forall ((A Bool) (B Bool) (C Int) (D Bool) (E Int) (F Bool) (G Bool) (H Int) (I Int) (J Int)) (=> (and (main@.lr.ph.i4 C J) (let ((a!1 (or (not G) (= E (+ C (* (- 1) J)))))) (and (or (not G) (not F) (= I H)) (or (not G) (not F) (= H E)) (or (not D) (not G) (not F)) (or (not A) (not G) (not B)) (or (not F) (and G F)) (or (not G) (= D (= C J))) a!1 (or (not G) (and A G)) (= F true) (= B (not (<= J C)))))) (main@.lr.ph.i4 I J))))
(constraint (forall ((A Int) (B Int) (C Int) (D Bool) (E Bool) (F Bool) (G Bool) (H Bool) (I Bool) (J Bool) (K Bool) (L Bool) (M Bool) (N Bool) (O Bool) (P Bool) (Q Bool) (R Bool)) (=> (and (main@.lr.ph.i4 B C) (let ((a!1 (or (not I) (= A (+ B (* (- 1) C)))))) (and (or (not I) (not J) (= L K)) (or (not I) (not K) (not J)) (or E (not I) (not J)) (or (not F) (not G) (= L H)) (or (not F) D (not G)) (or (not F) H (not G)) (or (not F) (not I) (not D)) (or (not M) (and F G) (and I J)) (or (not M) (not P) (= N L)) (or (not M) (not P) (= O N)) (or (not I) (= E (= B C))) a!1 (or (not I) (and F I)) (or I (not J)) (or (not P) (and M P)) (or (not P) O) (or F (not G)) (or (not R) (and Q R)) (or (not Q) (and Q P)) (= R true) (= D (not (<= C B)))))) main@verifier.error.split)))
(constraint (forall ((CHC_COMP_UNUSED Bool)) (=> (and main@verifier.error.split true) false)))

(check-synth)

